<?xml version = "1.0" encoding="UTF-8" standalone="yes"?>
<CPLEXSolution version="1.2">
 <header
   problemName="ilog.cplex"
   solutionName="incumbent"
   solutionIndex="-1"
   objectiveValue="34"
   solutionTypeValue="3"
   solutionTypeString="primal"
   solutionStatusValue="101"
   solutionStatusString="integer optimal solution"
   solutionMethodString="mip"
   primalFeasible="1"
   dualFeasible="1"
   MIPNodes="3273"
   MIPIterations="20224"
   writeLevel="3"/>
 <quality
   epInt="1.0000000000000001e-05"
   epRHS="9.9999999999999995e-07"
   maxIntInfeas="0"
   maxPrimalInfeas="0"
   maxX="8"
   maxSlack="18"/>
 <variables>
  <variable name="x_0_4_0" index="21" value="1"/>
  <variable name="x_4_0_0" index="29" value="1"/>
  <variable name="x_0_3_1" index="36" value="1"/>
  <variable name="x_3_0_1" index="44" value="1"/>
  <variable name="y_0_1" index="162" value="1"/>
  <variable name="y_1_0" index="165" value="1"/>
  <variable name="y_2_1" index="166" value="1"/>
  <variable name="y_3_0" index="169" value="1"/>
  <variable name="u_1_0" index="170" value="8"/>
  <variable name="u_2_0" index="171" value="8"/>
  <variable name="u_1_1" index="172" value="8"/>
  <variable name="u_2_1" index="173" value="8"/>
  <variable name="u_3_0" index="174" value="8"/>
  <variable name="u_3_1" index="175" value="8"/>
  <variable name="u_4_0" index="176" value="8"/>
  <variable name="u_4_1" index="177" value="8"/>
  <variable name="u_5_0" index="178" value="8"/>
  <variable name="u_5_1" index="179" value="8"/>
  <variable name="u_6_0" index="180" value="8"/>
  <variable name="u_6_1" index="181" value="8"/>
  <variable name="u_7_0" index="182" value="8"/>
  <variable name="u_7_1" index="183" value="8"/>
  <variable name="u_8_0" index="184" value="8"/>
  <variable name="u_8_1" index="185" value="8"/>
 </variables>
 <objectiveValues>
  <objective index="0" name="" value="34"/>
 </objectiveValues>
</CPLEXSolution>
